NAME           C:\Bruker\Hvattum\knapsack\Problems\class4\100-10-07.mps
ROWS
 N  OBJ
 L  CONSTR1
 L  CONSTR2
 L  CONSTR3
 L  CONSTR4
 L  CONSTR5
 L  CONSTR6
 L  CONSTR7
 L  CONSTR8
 L  CONSTR9
 L  CONSTR10
COLUMNS
    INT0001   'MARKER'  'INTORG'
    X1        OBJ       633
    X1        CONSTR1   566
    X1        CONSTR2   74
    X1        CONSTR3   740
    X1        CONSTR4   569
    X1        CONSTR5   865
    X1        CONSTR6   942
    X1        CONSTR7   717
    X1        CONSTR8   150
    X1        CONSTR9   84
    X1        CONSTR10  4
    X2        OBJ       686
    X2        CONSTR1   792
    X2        CONSTR2   972
    X2        CONSTR3   347
    X2        CONSTR4   288
    X2        CONSTR5   228
    X2        CONSTR6   138
    X2        CONSTR7   932
    X2        CONSTR8   380
    X2        CONSTR9   537
    X2        CONSTR10  630
    X3        OBJ       828
    X3        CONSTR1   258
    X3        CONSTR2   955
    X3        CONSTR3   550
    X3        CONSTR4   686
    X3        CONSTR5   443
    X3        CONSTR6   984
    X3        CONSTR7   767
    X3        CONSTR8   894
    X3        CONSTR9   927
    X3        CONSTR10  625
    X4        OBJ       448
    X4        CONSTR1   359
    X4        CONSTR2   264
    X4        CONSTR3   222
    X4        CONSTR4   253
    X4        CONSTR5   119
    X4        CONSTR6   726
    X4        CONSTR7   654
    X4        CONSTR8   229
    X4        CONSTR9   379
    X4        CONSTR10  432
    X5        OBJ       488
    X5        CONSTR1   889
    X5        CONSTR2   113
    X5        CONSTR3   583
    X5        CONSTR4   362
    X5        CONSTR5   649
    X5        CONSTR6   497
    X5        CONSTR7   479
    X5        CONSTR8   124
    X5        CONSTR9   986
    X5        CONSTR10  161
    X6        OBJ       886
    X6        CONSTR1   527
    X6        CONSTR2   972
    X6        CONSTR3   829
    X6        CONSTR4   379
    X6        CONSTR5   213
    X6        CONSTR6   922
    X6        CONSTR7   884
    X6        CONSTR8   888
    X6        CONSTR9   350
    X6        CONSTR10  20
    X7        OBJ       673
    X7        CONSTR1   473
    X7        CONSTR2   245
    X7        CONSTR3   237
    X7        CONSTR4   726
    X7        CONSTR5   123
    X7        CONSTR6   354
    X7        CONSTR7   361
    X7        CONSTR8   325
    X7        CONSTR9   623
    X7        CONSTR10  486
    X8        OBJ       780
    X8        CONSTR1   390
    X8        CONSTR2   483
    X8        CONSTR3   288
    X8        CONSTR4   963
    X8        CONSTR5   612
    X8        CONSTR6   534
    X8        CONSTR7   532
    X8        CONSTR8   716
    X8        CONSTR9   85
    X8        CONSTR10  785
    X9        OBJ       668
    X9        CONSTR1   315
    X9        CONSTR2   525
    X9        CONSTR3   886
    X9        CONSTR4   59
    X9        CONSTR5   167
    X9        CONSTR6   245
    X9        CONSTR7   947
    X9        CONSTR8   323
    X9        CONSTR9   521
    X9        CONSTR10  868
    X10       OBJ       422
    X10       CONSTR1   249
    X10       CONSTR2   854
    X10       CONSTR3   524
    X10       CONSTR4   456
    X10       CONSTR5   40
    X10       CONSTR6   819
    X10       CONSTR7   12
    X10       CONSTR8   290
    X10       CONSTR9   224
    X10       CONSTR10  308
    X11       OBJ       464
    X11       CONSTR1   664
    X11       CONSTR2   3
    X11       CONSTR3   636
    X11       CONSTR4   436
    X11       CONSTR5   463
    X11       CONSTR6   679
    X11       CONSTR7   203
    X11       CONSTR8   15
    X11       CONSTR9   497
    X11       CONSTR10  656
    X12       OBJ       760
    X12       CONSTR1   550
    X12       CONSTR2   799
    X12       CONSTR3   770
    X12       CONSTR4   581
    X12       CONSTR5   823
    X12       CONSTR6   171
    X12       CONSTR7   765
    X12       CONSTR8   473
    X12       CONSTR9   655
    X12       CONSTR10  215
    X13       OBJ       842
    X13       CONSTR1   188
    X13       CONSTR2   478
    X13       CONSTR3   100
    X13       CONSTR4   575
    X13       CONSTR5   783
    X13       CONSTR6   178
    X13       CONSTR7   798
    X13       CONSTR8   327
    X13       CONSTR9   488
    X13       CONSTR10  242
    X14       OBJ       637
    X14       CONSTR1   674
    X14       CONSTR2   590
    X14       CONSTR3   940
    X14       CONSTR4   30
    X14       CONSTR5   361
    X14       CONSTR6   278
    X14       CONSTR7   539
    X14       CONSTR8   345
    X14       CONSTR9   162
    X14       CONSTR10  49
    X15       OBJ       574
    X15       CONSTR1   482
    X15       CONSTR2   293
    X15       CONSTR3   83
    X15       CONSTR4   708
    X15       CONSTR5   178
    X15       CONSTR6   16
    X15       CONSTR7   105
    X15       CONSTR8   26
    X15       CONSTR9   797
    X15       CONSTR10  179
    X16       OBJ       841
    X16       CONSTR1   763
    X16       CONSTR2   605
    X16       CONSTR3   856
    X16       CONSTR4   586
    X16       CONSTR5   123
    X16       CONSTR6   397
    X16       CONSTR7   739
    X16       CONSTR8   218
    X16       CONSTR9   689
    X16       CONSTR10  489
    X17       OBJ       532
    X17       CONSTR1   786
    X17       CONSTR2   156
    X17       CONSTR3   872
    X17       CONSTR4   118
    X17       CONSTR5   48
    X17       CONSTR6   420
    X17       CONSTR7   626
    X17       CONSTR8   165
    X17       CONSTR9   586
    X17       CONSTR10  554
    X18       OBJ       947
    X18       CONSTR1   675
    X18       CONSTR2   57
    X18       CONSTR3   804
    X18       CONSTR4   470
    X18       CONSTR5   455
    X18       CONSTR6   737
    X18       CONSTR7   349
    X18       CONSTR8   675
    X18       CONSTR9   443
    X18       CONSTR10  262
    X19       OBJ       712
    X19       CONSTR1   162
    X19       CONSTR2   648
    X19       CONSTR3   587
    X19       CONSTR4   145
    X19       CONSTR5   333
    X19       CONSTR6   694
    X19       CONSTR7   823
    X19       CONSTR8   91
    X19       CONSTR9   53
    X19       CONSTR10  50
    X20       OBJ       734
    X20       CONSTR1   739
    X20       CONSTR2   21
    X20       CONSTR3   630
    X20       CONSTR4   563
    X20       CONSTR5   996
    X20       CONSTR6   619
    X20       CONSTR7   242
    X20       CONSTR8   839
    X20       CONSTR9   896
    X20       CONSTR10  77
    X21       OBJ       815
    X21       CONSTR1   226
    X21       CONSTR2   515
    X21       CONSTR3   962
    X21       CONSTR4   863
    X21       CONSTR5   117
    X21       CONSTR6   147
    X21       CONSTR7   154
    X21       CONSTR8   101
    X21       CONSTR9   555
    X21       CONSTR10  485
    X22       OBJ       873
    X22       CONSTR1   679
    X22       CONSTR2   441
    X22       CONSTR3   425
    X22       CONSTR4   13
    X22       CONSTR5   308
    X22       CONSTR6   373
    X22       CONSTR7   759
    X22       CONSTR8   103
    X22       CONSTR9   676
    X22       CONSTR10  851
    X23       OBJ       945
    X23       CONSTR1   588
    X23       CONSTR2   475
    X23       CONSTR3   437
    X23       CONSTR4   904
    X23       CONSTR5   844
    X23       CONSTR6   754
    X23       CONSTR7   616
    X23       CONSTR8   250
    X23       CONSTR9   825
    X23       CONSTR10  386
    X24       OBJ       407
    X24       CONSTR1   21
    X24       CONSTR2   204
    X24       CONSTR3   187
    X24       CONSTR4   155
    X24       CONSTR5   210
    X24       CONSTR6   472
    X24       CONSTR7   665
    X24       CONSTR8   802
    X24       CONSTR9   80
    X24       CONSTR10  605
    X25       OBJ       798
    X25       CONSTR1   568
    X25       CONSTR2   482
    X25       CONSTR3   229
    X25       CONSTR4   808
    X25       CONSTR5   618
    X25       CONSTR6   96
    X25       CONSTR7   212
    X25       CONSTR8   475
    X25       CONSTR9   924
    X25       CONSTR10  320
    X26       OBJ       717
    X26       CONSTR1   191
    X26       CONSTR2   756
    X26       CONSTR3   825
    X26       CONSTR4   924
    X26       CONSTR5   490
    X26       CONSTR6   342
    X26       CONSTR7   341
    X26       CONSTR8   707
    X26       CONSTR9   716
    X26       CONSTR10  396
    X27       OBJ       640
    X27       CONSTR1   396
    X27       CONSTR2   636
    X27       CONSTR3   59
    X27       CONSTR4   421
    X27       CONSTR5   329
    X27       CONSTR6   558
    X27       CONSTR7   275
    X27       CONSTR8   624
    X27       CONSTR9   886
    X27       CONSTR10  920
    X28       OBJ       688
    X28       CONSTR1   531
    X28       CONSTR2   124
    X28       CONSTR3   442
    X28       CONSTR4   199
    X28       CONSTR5   92
    X28       CONSTR6   296
    X28       CONSTR7   424
    X28       CONSTR8   878
    X28       CONSTR9   66
    X28       CONSTR10  123
    X29       OBJ       805
    X29       CONSTR1   535
    X29       CONSTR2   826
    X29       CONSTR3   566
    X29       CONSTR4   606
    X29       CONSTR5   158
    X29       CONSTR6   183
    X29       CONSTR7   546
    X29       CONSTR8   684
    X29       CONSTR9   726
    X29       CONSTR10  475
    X30       OBJ       863
    X30       CONSTR1   542
    X30       CONSTR2   163
    X30       CONSTR3   113
    X30       CONSTR4   938
    X30       CONSTR5   368
    X30       CONSTR6   405
    X30       CONSTR7   596
    X30       CONSTR8   541
    X30       CONSTR9   612
    X30       CONSTR10  248
    X31       OBJ       796
    X31       CONSTR1   592
    X31       CONSTR2   309
    X31       CONSTR3   480
    X31       CONSTR4   174
    X31       CONSTR5   524
    X31       CONSTR6   438
    X31       CONSTR7   180
    X31       CONSTR8   236
    X31       CONSTR9   598
    X31       CONSTR10  491
    X32       OBJ       597
    X32       CONSTR1   254
    X32       CONSTR2   400
    X32       CONSTR3   170
    X32       CONSTR4   332
    X32       CONSTR5   219
    X32       CONSTR6   113
    X32       CONSTR7   207
    X32       CONSTR8   18
    X32       CONSTR9   174
    X32       CONSTR10  534
    X33       OBJ       730
    X33       CONSTR1   408
    X33       CONSTR2   919
    X33       CONSTR3   985
    X33       CONSTR4   126
    X33       CONSTR5   885
    X33       CONSTR6   223
    X33       CONSTR7   839
    X33       CONSTR8   449
    X33       CONSTR9   905
    X33       CONSTR10  95
    X34       OBJ       493
    X34       CONSTR1   235
    X34       CONSTR2   883
    X34       CONSTR3   54
    X34       CONSTR4   100
    X34       CONSTR5   174
    X34       CONSTR6   365
    X34       CONSTR7   558
    X34       CONSTR8   419
    X34       CONSTR9   193
    X34       CONSTR10  185
    X35       OBJ       541
    X35       CONSTR1   510
    X35       CONSTR2   109
    X35       CONSTR3   561
    X35       CONSTR4   690
    X35       CONSTR5   237
    X35       CONSTR6   798
    X35       CONSTR7   963
    X35       CONSTR8   576
    X35       CONSTR9   725
    X35       CONSTR10  216
    X36       OBJ       871
    X36       CONSTR1   317
    X36       CONSTR2   228
    X36       CONSTR3   563
    X36       CONSTR4   979
    X36       CONSTR5   270
    X36       CONSTR6   90
    X36       CONSTR7   554
    X36       CONSTR8   570
    X36       CONSTR9   984
    X36       CONSTR10  26
    X37       OBJ       448
    X37       CONSTR1   851
    X37       CONSTR2   1000
    X37       CONSTR3   542
    X37       CONSTR4   191
    X37       CONSTR5   579
    X37       CONSTR6   66
    X37       CONSTR7   41
    X37       CONSTR8   606
    X37       CONSTR9   122
    X37       CONSTR10  130
    X38       OBJ       557
    X38       CONSTR1   330
    X38       CONSTR2   182
    X38       CONSTR3   356
    X38       CONSTR4   930
    X38       CONSTR5   126
    X38       CONSTR6   630
    X38       CONSTR7   496
    X38       CONSTR8   472
    X38       CONSTR9   572
    X38       CONSTR10  704
    X39       OBJ       690
    X39       CONSTR1   197
    X39       CONSTR2   408
    X39       CONSTR3   192
    X39       CONSTR4   279
    X39       CONSTR5   743
    X39       CONSTR6   939
    X39       CONSTR7   822
    X39       CONSTR8   47
    X39       CONSTR9   576
    X39       CONSTR10  450
    X40       OBJ       801
    X40       CONSTR1   141
    X40       CONSTR2   966
    X40       CONSTR3   15
    X40       CONSTR4   734
    X40       CONSTR5   983
    X40       CONSTR6   820
    X40       CONSTR7   286
    X40       CONSTR8   905
    X40       CONSTR9   42
    X40       CONSTR10  473
    X41       OBJ       690
    X41       CONSTR1   134
    X41       CONSTR2   870
    X41       CONSTR3   581
    X41       CONSTR4   213
    X41       CONSTR5   352
    X41       CONSTR6   741
    X41       CONSTR7   106
    X41       CONSTR8   311
    X41       CONSTR9   485
    X41       CONSTR10  481
    X42       OBJ       748
    X42       CONSTR1   530
    X42       CONSTR2   431
    X42       CONSTR3   655
    X42       CONSTR4   705
    X42       CONSTR5   23
    X42       CONSTR6   309
    X42       CONSTR7   509
    X42       CONSTR8   948
    X42       CONSTR9   164
    X42       CONSTR10  598
    X43       OBJ       853
    X43       CONSTR1   749
    X43       CONSTR2   966
    X43       CONSTR3   588
    X43       CONSTR4   542
    X43       CONSTR5   452
    X43       CONSTR6   33
    X43       CONSTR7   584
    X43       CONSTR8   450
    X43       CONSTR9   806
    X43       CONSTR10  775
    X44       OBJ       906
    X44       CONSTR1   631
    X44       CONSTR2   360
    X44       CONSTR3   321
    X44       CONSTR4   95
    X44       CONSTR5   400
    X44       CONSTR6   122
    X44       CONSTR7   994
    X44       CONSTR8   569
    X44       CONSTR9   516
    X44       CONSTR10  315
    X45       OBJ       593
    X45       CONSTR1   264
    X45       CONSTR2   606
    X45       CONSTR3   879
    X45       CONSTR4   751
    X45       CONSTR5   478
    X45       CONSTR6   311
    X45       CONSTR7   574
    X45       CONSTR8   238
    X45       CONSTR9   600
    X45       CONSTR10  842
    X46       OBJ       925
    X46       CONSTR1   708
    X46       CONSTR2   967
    X46       CONSTR3   781
    X46       CONSTR4   936
    X46       CONSTR5   873
    X46       CONSTR6   129
    X46       CONSTR7   473
    X46       CONSTR8   579
    X46       CONSTR9   30
    X46       CONSTR10  43
    X47       OBJ       916
    X47       CONSTR1   677
    X47       CONSTR2   533
    X47       CONSTR3   755
    X47       CONSTR4   903
    X47       CONSTR5   472
    X47       CONSTR6   808
    X47       CONSTR7   310
    X47       CONSTR8   263
    X47       CONSTR9   924
    X47       CONSTR10  232
    X48       OBJ       624
    X48       CONSTR1   637
    X48       CONSTR2   824
    X48       CONSTR3   833
    X48       CONSTR4   852
    X48       CONSTR5   7
    X48       CONSTR6   386
    X48       CONSTR7   398
    X48       CONSTR8   334
    X48       CONSTR9   822
    X48       CONSTR10  134
    X49       OBJ       681
    X49       CONSTR1   892
    X49       CONSTR2   783
    X49       CONSTR3   160
    X49       CONSTR4   867
    X49       CONSTR5   427
    X49       CONSTR6   513
    X49       CONSTR7   717
    X49       CONSTR8   783
    X49       CONSTR9   203
    X49       CONSTR10  359
    X50       OBJ       669
    X50       CONSTR1   184
    X50       CONSTR2   50
    X50       CONSTR3   736
    X50       CONSTR4   451
    X50       CONSTR5   554
    X50       CONSTR6   323
    X50       CONSTR7   606
    X50       CONSTR8   305
    X50       CONSTR9   850
    X50       CONSTR10  383
    X51       OBJ       579
    X51       CONSTR1   128
    X51       CONSTR2   670
    X51       CONSTR3   338
    X51       CONSTR4   827
    X51       CONSTR5   143
    X51       CONSTR6   357
    X51       CONSTR7   822
    X51       CONSTR8   497
    X51       CONSTR9   913
    X51       CONSTR10  128
    X52       OBJ       926
    X52       CONSTR1   547
    X52       CONSTR2   662
    X52       CONSTR3   483
    X52       CONSTR4   693
    X52       CONSTR5   194
    X52       CONSTR6   377
    X52       CONSTR7   956
    X52       CONSTR8   805
    X52       CONSTR9   138
    X52       CONSTR10  279
    X53       OBJ       703
    X53       CONSTR1   822
    X53       CONSTR2   242
    X53       CONSTR3   213
    X53       CONSTR4   198
    X53       CONSTR5   182
    X53       CONSTR6   89
    X53       CONSTR7   646
    X53       CONSTR8   407
    X53       CONSTR9   976
    X53       CONSTR10  841
    X54       OBJ       430
    X54       CONSTR1   224
    X54       CONSTR2   424
    X54       CONSTR3   629
    X54       CONSTR4   176
    X54       CONSTR5   762
    X54       CONSTR6   373
    X54       CONSTR7   870
    X54       CONSTR8   50
    X54       CONSTR9   621
    X54       CONSTR10  145
    X55       OBJ       1023
    X55       CONSTR1   607
    X55       CONSTR2   919
    X55       CONSTR3   122
    X55       CONSTR4   821
    X55       CONSTR5   589
    X55       CONSTR6   665
    X55       CONSTR7   742
    X55       CONSTR8   406
    X55       CONSTR9   470
    X55       CONSTR10  834
    X56       OBJ       554
    X56       CONSTR1   869
    X56       CONSTR2   570
    X56       CONSTR3   290
    X56       CONSTR4   41
    X56       CONSTR5   251
    X56       CONSTR6   856
    X56       CONSTR7   449
    X56       CONSTR8   184
    X56       CONSTR9   929
    X56       CONSTR10  516
    X57       OBJ       854
    X57       CONSTR1   270
    X57       CONSTR2   812
    X57       CONSTR3   978
    X57       CONSTR4   558
    X57       CONSTR5   828
    X57       CONSTR6   959
    X57       CONSTR7   160
    X57       CONSTR8   297
    X57       CONSTR9   383
    X57       CONSTR10  538
    X58       OBJ       809
    X58       CONSTR1   473
    X58       CONSTR2   773
    X58       CONSTR3   93
    X58       CONSTR4   302
    X58       CONSTR5   336
    X58       CONSTR6   959
    X58       CONSTR7   109
    X58       CONSTR8   812
    X58       CONSTR9   29
    X58       CONSTR10  635
    X59       OBJ       785
    X59       CONSTR1   453
    X59       CONSTR2   109
    X59       CONSTR3   723
    X59       CONSTR4   272
    X59       CONSTR5   554
    X59       CONSTR6   708
    X59       CONSTR7   229
    X59       CONSTR8   66
    X59       CONSTR9   724
    X59       CONSTR10  296
    X60       OBJ       712
    X60       CONSTR1   836
    X60       CONSTR2   273
    X60       CONSTR3   992
    X60       CONSTR4   355
    X60       CONSTR5   18
    X60       CONSTR6   225
    X60       CONSTR7   450
    X60       CONSTR8   311
    X60       CONSTR9   700
    X60       CONSTR10  687
    X61       OBJ       564
    X61       CONSTR1   344
    X61       CONSTR2   653
    X61       CONSTR3   841
    X61       CONSTR4   707
    X61       CONSTR5   944
    X61       CONSTR6   932
    X61       CONSTR7   144
    X61       CONSTR8   215
    X61       CONSTR9   295
    X61       CONSTR10  305
    X62       OBJ       1030
    X62       CONSTR1   804
    X62       CONSTR2   496
    X62       CONSTR3   6
    X62       CONSTR4   191
    X62       CONSTR5   890
    X62       CONSTR6   497
    X62       CONSTR7   571
    X62       CONSTR8   360
    X62       CONSTR9   792
    X62       CONSTR10  706
    X63       OBJ       917
    X63       CONSTR1   269
    X63       CONSTR2   912
    X63       CONSTR3   629
    X63       CONSTR4   200
    X63       CONSTR5   242
    X63       CONSTR6   15
    X63       CONSTR7   820
    X63       CONSTR8   430
    X63       CONSTR9   882
    X63       CONSTR10  688
    X64       OBJ       660
    X64       CONSTR1   471
    X64       CONSTR2   854
    X64       CONSTR3   618
    X64       CONSTR4   633
    X64       CONSTR5   501
    X64       CONSTR6   855
    X64       CONSTR7   38
    X64       CONSTR8   117
    X64       CONSTR9   7
    X64       CONSTR10  266
    X65       OBJ       1058
    X65       CONSTR1   488
    X65       CONSTR2   918
    X65       CONSTR3   113
    X65       CONSTR4   281
    X65       CONSTR5   36
    X65       CONSTR6   797
    X65       CONSTR7   920
    X65       CONSTR8   968
    X65       CONSTR9   707
    X65       CONSTR10  635
    X66       OBJ       634
    X66       CONSTR1   49
    X66       CONSTR2   724
    X66       CONSTR3   33
    X66       CONSTR4   465
    X66       CONSTR5   247
    X66       CONSTR6   228
    X66       CONSTR7   292
    X66       CONSTR8   445
    X66       CONSTR9   100
    X66       CONSTR10  286
    X67       OBJ       457
    X67       CONSTR1   28
    X67       CONSTR2   684
    X67       CONSTR3   891
    X67       CONSTR4   384
    X67       CONSTR5   45
    X67       CONSTR6   669
    X67       CONSTR7   34
    X67       CONSTR8   232
    X67       CONSTR9   349
    X67       CONSTR10  85
    X68       OBJ       972
    X68       CONSTR1   411
    X68       CONSTR2   792
    X68       CONSTR3   869
    X68       CONSTR4   238
    X68       CONSTR5   992
    X68       CONSTR6   16
    X68       CONSTR7   200
    X68       CONSTR8   784
    X68       CONSTR9   956
    X68       CONSTR10  106
    X69       OBJ       1028
    X69       CONSTR1   366
    X69       CONSTR2   964
    X69       CONSTR3   340
    X69       CONSTR4   855
    X69       CONSTR5   226
    X69       CONSTR6   620
    X69       CONSTR7   702
    X69       CONSTR8   686
    X69       CONSTR9   314
    X69       CONSTR10  758
    X70       OBJ       580
    X70       CONSTR1   622
    X70       CONSTR2   56
    X70       CONSTR3   34
    X70       CONSTR4   400
    X70       CONSTR5   430
    X70       CONSTR6   375
    X70       CONSTR7   344
    X70       CONSTR8   251
    X70       CONSTR9   125
    X70       CONSTR10  510
    X71       OBJ       932
    X71       CONSTR1   190
    X71       CONSTR2   99
    X71       CONSTR3   206
    X71       CONSTR4   710
    X71       CONSTR5   811
    X71       CONSTR6   423
    X71       CONSTR7   19
    X71       CONSTR8   890
    X71       CONSTR9   974
    X71       CONSTR10  253
    X72       OBJ       723
    X72       CONSTR1   291
    X72       CONSTR2   871
    X72       CONSTR3   220
    X72       CONSTR4   500
    X72       CONSTR5   45
    X72       CONSTR6   284
    X72       CONSTR7   105
    X72       CONSTR8   478
    X72       CONSTR9   550
    X72       CONSTR10  726
    X73       OBJ       669
    X73       CONSTR1   21
    X73       CONSTR2   175
    X73       CONSTR3   614
    X73       CONSTR4   853
    X73       CONSTR5   808
    X73       CONSTR6   328
    X73       CONSTR7   816
    X73       CONSTR8   380
    X73       CONSTR9   925
    X73       CONSTR10  302
    X74       OBJ       487
    X74       CONSTR1   227
    X74       CONSTR2   38
    X74       CONSTR3   322
    X74       CONSTR4   376
    X74       CONSTR5   98
    X74       CONSTR6   27
    X74       CONSTR7   737
    X74       CONSTR8   160
    X74       CONSTR9   815
    X74       CONSTR10  856
    X75       OBJ       440
    X75       CONSTR1   105
    X75       CONSTR2   44
    X75       CONSTR3   50
    X75       CONSTR4   944
    X75       CONSTR5   437
    X75       CONSTR6   337
    X75       CONSTR7   686
    X75       CONSTR8   186
    X75       CONSTR9   170
    X75       CONSTR10  536
    X76       OBJ       650
    X76       CONSTR1   294
    X76       CONSTR2   125
    X76       CONSTR3   692
    X76       CONSTR4   52
    X76       CONSTR5   986
    X76       CONSTR6   651
    X76       CONSTR7   255
    X76       CONSTR8   63
    X76       CONSTR9   984
    X76       CONSTR10  204
    X77       OBJ       623
    X77       CONSTR1   67
    X77       CONSTR2   305
    X77       CONSTR3   791
    X77       CONSTR4   751
    X77       CONSTR5   367
    X77       CONSTR6   906
    X77       CONSTR7   336
    X77       CONSTR8   242
    X77       CONSTR9   662
    X77       CONSTR10  603
    X78       OBJ       621
    X78       CONSTR1   630
    X78       CONSTR2   622
    X78       CONSTR3   284
    X78       CONSTR4   350
    X78       CONSTR5   44
    X78       CONSTR6   605
    X78       CONSTR7   161
    X78       CONSTR8   709
    X78       CONSTR9   177
    X78       CONSTR10  227
    X79       OBJ       605
    X79       CONSTR1   731
    X79       CONSTR2   522
    X79       CONSTR3   259
    X79       CONSTR4   261
    X79       CONSTR5   84
    X79       CONSTR6   297
    X79       CONSTR7   360
    X79       CONSTR8   540
    X79       CONSTR9   989
    X79       CONSTR10  75
    X80       OBJ       488
    X80       CONSTR1   228
    X80       CONSTR2   391
    X80       CONSTR3   485
    X80       CONSTR4   129
    X80       CONSTR5   229
    X80       CONSTR6   456
    X80       CONSTR7   320
    X80       CONSTR8   263
    X80       CONSTR9   520
    X80       CONSTR10  104
    X81       OBJ       848
    X81       CONSTR1   296
    X81       CONSTR2   607
    X81       CONSTR3   783
    X81       CONSTR4   795
    X81       CONSTR5   907
    X81       CONSTR6   143
    X81       CONSTR7   244
    X81       CONSTR8   744
    X81       CONSTR9   301
    X81       CONSTR10  904
    X82       OBJ       784
    X82       CONSTR1   540
    X82       CONSTR2   920
    X82       CONSTR3   185
    X82       CONSTR4   500
    X82       CONSTR5   999
    X82       CONSTR6   606
    X82       CONSTR7   71
    X82       CONSTR8   966
    X82       CONSTR9   854
    X82       CONSTR10  677
    X83       OBJ       913
    X83       CONSTR1   388
    X83       CONSTR2   748
    X83       CONSTR3   493
    X83       CONSTR4   419
    X83       CONSTR5   627
    X83       CONSTR6   865
    X83       CONSTR7   684
    X83       CONSTR8   290
    X83       CONSTR9   507
    X83       CONSTR10  272
    X84       OBJ       521
    X84       CONSTR1   862
    X84       CONSTR2   225
    X84       CONSTR3   281
    X84       CONSTR4   239
    X84       CONSTR5   223
    X84       CONSTR6   814
    X84       CONSTR7   324
    X84       CONSTR8   433
    X84       CONSTR9   511
    X84       CONSTR10  260
    X85       OBJ       590
    X85       CONSTR1   790
    X85       CONSTR2   617
    X85       CONSTR3   812
    X85       CONSTR4   308
    X85       CONSTR5   681
    X85       CONSTR6   76
    X85       CONSTR7   986
    X85       CONSTR8   316
    X85       CONSTR9   290
    X85       CONSTR10  21
    X86       OBJ       677
    X86       CONSTR1   838
    X86       CONSTR2   292
    X86       CONSTR3   819
    X86       CONSTR4   302
    X86       CONSTR5   601
    X86       CONSTR6   181
    X86       CONSTR7   509
    X86       CONSTR8   827
    X86       CONSTR9   851
    X86       CONSTR10  268
    X87       OBJ       646
    X87       CONSTR1   363
    X87       CONSTR2   79
    X87       CONSTR3   998
    X87       CONSTR4   228
    X87       CONSTR5   635
    X87       CONSTR6   568
    X87       CONSTR7   927
    X87       CONSTR8   310
    X87       CONSTR9   180
    X87       CONSTR10  38
    X88       OBJ       656
    X88       CONSTR1   975
    X88       CONSTR2   451
    X88       CONSTR3   674
    X88       CONSTR4   911
    X88       CONSTR5   940
    X88       CONSTR6   438
    X88       CONSTR7   237
    X88       CONSTR8   906
    X88       CONSTR9   158
    X88       CONSTR10  861
    X89       OBJ       688
    X89       CONSTR1   965
    X89       CONSTR2   1
    X89       CONSTR3   437
    X89       CONSTR4   53
    X89       CONSTR5   185
    X89       CONSTR6   285
    X89       CONSTR7   557
    X89       CONSTR8   43
    X89       CONSTR9   66
    X89       CONSTR10  495
    X90       OBJ       939
    X90       CONSTR1   599
    X90       CONSTR2   673
    X90       CONSTR3   996
    X90       CONSTR4   192
    X90       CONSTR5   254
    X90       CONSTR6   111
    X90       CONSTR7   835
    X90       CONSTR8   593
    X90       CONSTR9   202
    X90       CONSTR10  453
    X91       OBJ       867
    X91       CONSTR1   610
    X91       CONSTR2   974
    X91       CONSTR3   533
    X91       CONSTR4   568
    X91       CONSTR5   506
    X91       CONSTR6   581
    X91       CONSTR7   789
    X91       CONSTR8   725
    X91       CONSTR9   869
    X91       CONSTR10  432
    X92       OBJ       483
    X92       CONSTR1   391
    X92       CONSTR2   118
    X92       CONSTR3   78
    X92       CONSTR4   375
    X92       CONSTR5   550
    X92       CONSTR6   55
    X92       CONSTR7   728
    X92       CONSTR8   506
    X92       CONSTR9   615
    X92       CONSTR10  347
    X93       OBJ       328
    X93       CONSTR1   171
    X93       CONSTR2   158
    X93       CONSTR3   52
    X93       CONSTR4   93
    X93       CONSTR5   224
    X93       CONSTR6   475
    X93       CONSTR7   811
    X93       CONSTR8   401
    X93       CONSTR9   506
    X93       CONSTR10  76
    X94       OBJ       534
    X94       CONSTR1   55
    X94       CONSTR2   263
    X94       CONSTR3   285
    X94       CONSTR4   140
    X94       CONSTR5   628
    X94       CONSTR6   732
    X94       CONSTR7   57
    X94       CONSTR8   664
    X94       CONSTR9   112
    X94       CONSTR10  150
    X95       OBJ       578
    X95       CONSTR1   761
    X95       CONSTR2   853
    X95       CONSTR3   55
    X95       CONSTR4   225
    X95       CONSTR5   730
    X95       CONSTR6   126
    X95       CONSTR7   518
    X95       CONSTR8   556
    X95       CONSTR9   598
    X95       CONSTR10  607
    X96       OBJ       477
    X96       CONSTR1   49
    X96       CONSTR2   564
    X96       CONSTR3   697
    X96       CONSTR4   651
    X96       CONSTR5   132
    X96       CONSTR6   858
    X96       CONSTR7   265
    X96       CONSTR8   819
    X96       CONSTR9   401
    X96       CONSTR10  159
    X97       OBJ       676
    X97       CONSTR1   942
    X97       CONSTR2   925
    X97       CONSTR3   390
    X97       CONSTR4   76
    X97       CONSTR5   124
    X97       CONSTR6   769
    X97       CONSTR7   586
    X97       CONSTR8   378
    X97       CONSTR9   740
    X97       CONSTR10  977
    X98       OBJ       800
    X98       CONSTR1   689
    X98       CONSTR2   566
    X98       CONSTR3   853
    X98       CONSTR4   701
    X98       CONSTR5   543
    X98       CONSTR6   409
    X98       CONSTR7   494
    X98       CONSTR8   147
    X98       CONSTR9   457
    X98       CONSTR10  596
    X99       OBJ       680
    X99       CONSTR1   148
    X99       CONSTR2   288
    X99       CONSTR3   333
    X99       CONSTR4   352
    X99       CONSTR5   851
    X99       CONSTR6   660
    X99       CONSTR7   197
    X99       CONSTR8   752
    X99       CONSTR9   663
    X99       CONSTR10  445
    X100      OBJ       628
    X100      CONSTR1   649
    X100      CONSTR2   73
    X100      CONSTR3   406
    X100      CONSTR4   542
    X100      CONSTR5   455
    X100      CONSTR6   290
    X100      CONSTR7   632
    X100      CONSTR8   39
    X100      CONSTR9   89
    X100      CONSTR10  730
    INT0001   'MARKER'  'INTEND'
RHS
    RHS10001  CONSTR1   11741
    RHS10001  CONSTR2   12654
    RHS10001  CONSTR3   12314
    RHS10001  CONSTR4   11707
    RHS10001  CONSTR5   10862
    RHS10001  CONSTR6   11515
    RHS10001  CONSTR7   12506
    RHS10001  CONSTR8   11096
    RHS10001  CONSTR9   13121
    RHS10001  CONSTR10  10316
BOUNDS
 BV BND       X1        .00
 BV BND       X2        .00
 BV BND       X3        .00
 BV BND       X4        .00
 BV BND       X5        .00
 BV BND       X6        .00
 BV BND       X7        .00
 BV BND       X8        .00
 BV BND       X9        .00
 BV BND       X10       .00
 BV BND       X11       .00
 BV BND       X12       .00
 BV BND       X13       .00
 BV BND       X14       .00
 BV BND       X15       .00
 BV BND       X16       .00
 BV BND       X17       .00
 BV BND       X18       .00
 BV BND       X19       .00
 BV BND       X20       .00
 BV BND       X21       .00
 BV BND       X22       .00
 BV BND       X23       .00
 BV BND       X24       .00
 BV BND       X25       .00
 BV BND       X26       .00
 BV BND       X27       .00
 BV BND       X28       .00
 BV BND       X29       .00
 BV BND       X30       .00
 BV BND       X31       .00
 BV BND       X32       .00
 BV BND       X33       .00
 BV BND       X34       .00
 BV BND       X35       .00
 BV BND       X36       .00
 BV BND       X37       .00
 BV BND       X38       .00
 BV BND       X39       .00
 BV BND       X40       .00
 BV BND       X41       .00
 BV BND       X42       .00
 BV BND       X43       .00
 BV BND       X44       .00
 BV BND       X45       .00
 BV BND       X46       .00
 BV BND       X47       .00
 BV BND       X48       .00
 BV BND       X49       .00
 BV BND       X50       .00
 BV BND       X51       .00
 BV BND       X52       .00
 BV BND       X53       .00
 BV BND       X54       .00
 BV BND       X55       .00
 BV BND       X56       .00
 BV BND       X57       .00
 BV BND       X58       .00
 BV BND       X59       .00
 BV BND       X60       .00
 BV BND       X61       .00
 BV BND       X62       .00
 BV BND       X63       .00
 BV BND       X64       .00
 BV BND       X65       .00
 BV BND       X66       .00
 BV BND       X67       .00
 BV BND       X68       .00
 BV BND       X69       .00
 BV BND       X70       .00
 BV BND       X71       .00
 BV BND       X72       .00
 BV BND       X73       .00
 BV BND       X74       .00
 BV BND       X75       .00
 BV BND       X76       .00
 BV BND       X77       .00
 BV BND       X78       .00
 BV BND       X79       .00
 BV BND       X80       .00
 BV BND       X81       .00
 BV BND       X82       .00
 BV BND       X83       .00
 BV BND       X84       .00
 BV BND       X85       .00
 BV BND       X86       .00
 BV BND       X87       .00
 BV BND       X88       .00
 BV BND       X89       .00
 BV BND       X90       .00
 BV BND       X91       .00
 BV BND       X92       .00
 BV BND       X93       .00
 BV BND       X94       .00
 BV BND       X95       .00
 BV BND       X96       .00
 BV BND       X97       .00
 BV BND       X98       .00
 BV BND       X99       .00
 BV BND       X100      .00
ENDATA
